results-backups/results-2023-06-02/results/mps/Fattahi_setup_02_modified_makespan.mps
NAME F-JSSP-SDST
ROWS
 N  OBJ
 E  c0      
 E  c1      
 E  c2      
 E  c3      
 L  c4      
 L  c5      
 L  c6      
 L  c7      
 L  c8      
 L  c9      
 G  c10     
 G  c11     
 G  c12     
 G  c13     
 G  c14     
 G  c15     
 G  c16     
 G  c17     
 G  c18     
 G  c19     
 G  c20     
 G  c21     
 G  c22     
 G  c23     
 G  c24     
 G  c25     
 G  c26     
 G  c27     
 G  c28     
 G  c29     
 G  c30     
 G  c31     
 G  c32     
 G  c33     
 E  c34     
COLUMNS
    MARKER    'MARKER'                 'INTORG'
    B0(6)     c0        1
    B0(6)     c4        -1000000000
    B0(6)     c10       -43
    B0(6)     c11       -1000000043
    B0(6)     c14       -1000000000
    B0(6)     c15       -1000000000
    B1(6)     c1        1
    B1(6)     c5        -1000000000
    B1(6)     c11       -1000000000
    B1(6)     c16       -1000000000
    B1(6)     c17       -1000000000
    B1(6)     c34       -64
    B2(7)     c1        1
    B2(7)     c6        -1000000000
    B2(7)     c18       -1000000000
    B2(7)     c19       -1000000000
    B2(7)     c20       -1000000000
    B2(7)     c21       -1000000000
    B2(7)     c34       -71
    B3(9)     c2        1
    B3(9)     c7        -1000000000
    B3(9)     c12       -21
    B3(9)     c13       -21
    B3(9)     c14       -1000000000
    B3(9)     c15       -1000000000
    B3(9)     c16       -1000000000
    B3(9)     c17       -1000000000
    B3(9)     c28       -9
    B4(7)     c2        1
    B4(7)     c8        -1000000000
    B4(7)     c12       -35
    B4(7)     c13       -1000000035
    B4(7)     c18       -1000000000
    B4(7)     c19       -1000000000
    B4(7)     c30       -9
    B5(7)     c3        1
    B5(7)     c9        -1000000000
    B5(7)     c13       -1000000000
    B5(7)     c20       -1000000000
    B5(7)     c21       -1000000000
    B5(7)     c32       -9
    B5(7)     c34       -43
    B6(0)     OBJ       0
    B7(0)     OBJ       0
    B8(2)     c14       -1000000000
    B8(2)     c15       1000000000
    B9(0)     OBJ       0
    B10(0)    OBJ       0
    B11(0)    OBJ       0
    B12(4)    c16       -1000000000
    B12(4)    c17       1000000000
    B12(4)    c18       -1000000000
    B12(4)    c19       1000000000
    B13(2)    c20       -1000000000
    B13(2)    c21       1000000000
    B14(0)    OBJ       0
    B15(0)    OBJ       0
    B16(0)    OBJ       0
    B17(0)    OBJ       0
    B18(0)    OBJ       0
    B19(0)    OBJ       0
    B20(0)    OBJ       0
    B21(0)    OBJ       0
    I22(7)    c4        1
    I22(7)    c10       -1
    I22(7)    c11       -1
    I22(7)    c14       1
    I22(7)    c15       -1
    I22(7)    c22       1
    I22(7)    c23       1
    I23(8)    c5        1
    I23(8)    c10       1
    I23(8)    c11       1
    I23(8)    c16       1
    I23(8)    c17       -1
    I23(8)    c24       1
    I23(8)    c25       1
    I23(8)    c34       -1
    I24(10)   c6        1
    I24(10)   c10       1
    I24(10)   c11       1
    I24(10)   c18       1
    I24(10)   c19       -1
    I24(10)   c20       1
    I24(10)   c21       -1
    I24(10)   c26       1
    I24(10)   c27       1
    I24(10)   c34       -1
    I25(9)    c7        1
    I25(9)    c12       -1
    I25(9)    c13       -1
    I25(9)    c14       -1
    I25(9)    c15       1
    I25(9)    c16       -1
    I25(9)    c17       1
    I25(9)    c28       1
    I25(9)    c29       1
    I26(7)    c8        1
    I26(7)    c12       -1
    I26(7)    c13       -1
    I26(7)    c18       -1
    I26(7)    c19       1
    I26(7)    c30       1
    I26(7)    c31       1
    I27(8)    c9        1
    I27(8)    c12       1
    I27(8)    c13       1
    I27(8)    c20       -1
    I27(8)    c21       1
    I27(8)    c32       1
    I27(8)    c33       1
    I27(8)    c34       -1
    I28(1)    OBJ       1
    I28(1)    c34       1
    MARKER    'MARKER'                 'INTEND'
RHS
    RHS1      c0        1
    RHS1      c1        1
    RHS1      c2        1
    RHS1      c3        1
    RHS1      c11       -1999999995
    RHS1      c13       -1999999995
    RHS1      c14       -2999999974
    RHS1      c15       -1999999952
    RHS1      c16       -2999999975
    RHS1      c17       -1999999933
    RHS1      c18       -2999999960
    RHS1      c19       -1999999926
    RHS1      c20       -2999999953
    RHS1      c21       -1999999924
BOUNDS
 BV BND1      B0(6)   
 BV BND1      B1(6)   
 BV BND1      B2(7)   
 BV BND1      B3(9)   
 BV BND1      B4(7)   
 BV BND1      B5(7)   
 BV BND1      B6(0)   
 BV BND1      B7(0)   
 BV BND1      B8(2)   
 BV BND1      B9(0)   
 BV BND1      B10(0)  
 BV BND1      B11(0)  
 BV BND1      B12(4)  
 BV BND1      B13(2)  
 BV BND1      B14(0)  
 BV BND1      B15(0)  
 BV BND1      B16(0)  
 BV BND1      B17(0)  
 BV BND1      B18(0)  
 BV BND1      B19(0)  
 BV BND1      B20(0)  
 BV BND1      B21(0)  
 LI BND1      I22(7)    0
 LI BND1      I23(8)    0
 LI BND1      I24(10)   0
 LI BND1      I25(9)    0
 LI BND1      I26(7)    0
 LI BND1      I27(8)    0
 LI BND1      I28(1)    0
ENDATA
